p cnf 126 418
-2 -3 -4 0
2 3 -4 0
-2 3 4 0
2 -3 4 0
-5 -1 0
-5 4 0
1 -4 5 0
8 -6 0
8 7 0
6 -7 -8 0
-9 -5 0
-9 8 0
5 -8 9 0
-7 10 -11 0
7 -10 -11 0
-7 -10 11 0
7 10 11 0
-12 9 0
-12 11 0
-9 -11 12 0
-7 -14 -15 0
7 14 -15 0
-7 14 15 0
7 -14 15 0
17 -15 0
17 16 0
15 -16 -17 0
13 -17 -18 0
-13 17 -18 0
13 17 18 0
-13 -17 18 0
20 18 0
20 19 0
-18 -19 -20 0
22 20 0
22 21 0
-20 -21 -22 0
24 -23 0
24 -19 0
23 19 -24 0
22 -24 -25 0
-22 24 -25 0
22 24 25 0
-22 -24 25 0
-26 -6 0
-26 13 0
6 -13 26 0
26 15 -27 0
-26 -15 -27 0
26 -15 27 0
-26 15 27 0
16 28 -29 0
-16 -28 -29 0
16 -28 29 0
-16 28 29 0
-30 1 0
-30 -29 0
-1 29 30 0
7 10 -31 0
-7 -10 -31 0
7 -10 31 0
-7 10 31 0
32 -1 0
32 31 0
1 -31 -32 0
-30 -32 -33 0
30 32 -33 0
-30 32 33 0
30 -32 33 0
-34 33 0
-34 8 0
-33 -8 34 0
-35 27 0
-35 -34 0
-27 34 35 0
36 -25 0
36 35 0
25 -35 -36 0
-15 -10 -37 0
15 10 -37 0
-15 10 37 0
15 -10 37 0
7 37 -38 0
-7 -37 -38 0
7 -37 38 0
-7 37 38 0
7 -39 0
-7 -39 0
-3 -40 0
3 -40 0
-41 40 0
-41 -23 0
-40 23 41 0
-42 -39 0
-42 41 0
39 -41 42 0
-38 42 -43 0
38 -42 -43 0
-38 -42 43 0
38 42 43 0
-44 30 0
-44 1 0
-30 -1 44 0
-45 1 0
-45 -7 0
-1 7 45 0
19 45 -46 0
-19 -45 -46 0
19 -45 46 0
-19 45 46 0
47 -3 0
47 -10 0
3 10 -47 0
47 -39 -48 0
-47 39 -48 0
47 39 48 0
-47 -39 48 0
-49 -46 0
-49 48 0
46 -48 49 0
-50 44 0
-50 -49 0
-44 49 50 0
-45 -2 -51 0
45 2 -51 0
-45 2 51 0
45 -2 51 0
52 -8 0
52 -51 0
8 51 -52 0
-53 52 0
-53 13 0
-52 -13 53 0
53 -54 -55 0
-53 54 -55 0
53 54 55 0
-53 -54 55 0
32 -7 -56 0
-32 7 -56 0
32 7 56 0
-32 -7 56 0
57 -55 0
57 -56 0
55 56 -57 0
-40 -21 -58 0
40 21 -58 0
-40 21 58 0
40 -21 58 0
59 57 0
59 58 0
-57 -58 -59 0
60 -50 0
60 59 0
50 -59 -60 0
-31 -32 -61 0
31 32 -61 0
-31 32 61 0
31 -32 61 0
-60 61 -62 0
60 -61 -62 0
-60 -61 62 0
60 61 62 0
-8 -28 -63 0
8 28 -63 0
-8 28 63 0
8 -28 63 0
-64 54 0
-64 63 0
-54 -63 64 0
65 -64 0
65 1 0
64 -1 -65 0
66 31 0
66 54 0
-31 -54 -66 0
-67 -5 0
-67 63 0
5 -63 67 0
-68 -67 0
-68 -20 0
67 20 68 0
69 -2 0
69 4 0
2 -4 -69 0
70 -68 0
70 69 0
68 -69 -70 0
71 66 0
71 -70 0
-66 70 -71 0
21 -20 -72 0
-21 20 -72 0
21 20 72 0
-21 -20 72 0
-73 -29 0
-73 -72 0
29 72 73 0
-74 71 0
-74 73 0
-71 -73 74 0
-1 -29 -75 0
1 29 -75 0
-1 29 75 0
1 -29 75 0
-76 19 0
-76 75 0
-19 -75 76 0
-54 15 -77 0
54 -15 -77 0
-54 -15 77 0
54 15 77 0
-78 76 0
-78 77 0
-76 -77 78 0
74 -78 -79 0
-74 78 -79 0
74 78 79 0
-74 -78 79 0
80 26 0
80 67 0
-26 -67 -80 0
81 -80 0
81 -20 0
80 20 -81 0
-82 15 0
-82 81 0
-15 -81 82 0
-83 18 0
-83 -82 0
-18 82 83 0
84 -23 0
84 -31 0
23 31 -84 0
-40 -84 -85 0
40 84 -85 0
-40 84 85 0
40 -84 85 0
-86 83 0
-86 85 0
-83 -85 86 0
-87 -79 0
-87 86 0
79 -86 87 0
-65 87 -88 0
65 -87 -88 0
-65 -87 88 0
65 87 88 0
-89 -62 0
-89 88 0
62 -88 89 0
-43 -89 -90 0
43 89 -90 0
-43 89 90 0
43 -89 90 0
91 36 0
91 90 0
-36 -90 -91 0
-92 -12 0
-92 -91 0
12 91 92 0
-93 41 0
-93 3 0
-41 -3 93 0
93 40 -94 0
-93 -40 -94 0
93 -40 94 0
-93 40 94 0
95 1 0
95 -93 0
-1 93 -95 0
94 95 -96 0
-94 -95 -96 0
94 -95 96 0
-94 95 96 0
98 32 0
98 -97 0
-32 97 -98 0
99 -10 0
99 -84 0
10 84 -99 0
-101 -100 0
-101 41 0
100 -41 101 0
-102 99 0
-102 101 0
-99 -101 102 0
103 98 0
103 -102 0
-98 102 -103 0
-104 -96 0
-104 -103 0
96 103 104 0
-105 4 0
-105 31 0
-4 -31 105 0
-106 -75 0
-106 51 0
75 -51 106 0
-107 106 0
-107 -6 0
-106 6 107 0
-108 -105 0
-108 107 0
105 -107 108 0
-109 -47 0
-109 -14 0
47 14 109 0
110 -5 0
110 -13 0
5 13 -110 0
109 110 -111 0
-109 -110 -111 0
109 -110 111 0
-109 110 111 0
112 108 0
112 -111 0
-108 111 -112 0
-113 -15 0
-113 28 0
15 -28 113 0
114 17 0
114 40 0
-17 -40 -114 0
115 -1 0
115 114 0
1 -114 -115 0
16 10 -116 0
-16 -10 -116 0
16 -10 116 0
-16 10 116 0
117 115 0
117 -116 0
-115 116 -117 0
118 -52 0
118 3 0
52 -3 -118 0
119 117 0
119 118 0
-117 -118 -119 0
113 -119 -120 0
-113 119 -120 0
113 119 120 0
-113 -119 120 0
121 112 0
121 -120 0
-112 120 -121 0
-104 121 -122 0
104 -121 -122 0
-104 -121 122 0
104 121 122 0
7 -51 -123 0
-7 51 -123 0
7 51 123 0
-7 -51 123 0
124 -123 0
124 45 0
123 -45 -124 0
125 122 0
125 124 0
-122 -124 -125 0
-126 92 0
-126 -125 0
-92 125 126 0
30 -101 -27 -67 28 0
2 -94 -68 -108 52 -51 0
120 111 13 -88 0
-30 -105 0
-125 48 4 39 0
-89 17 -103 -36 120 0
-38 4 -12 0
-57 4 0
19 20 0
-84 50 -95 75 -113 123 0
-32 -19 0
97 7 -8 74 -4 0
63 -9 20 -105 -122 0
-115 -85 0
65 -63 40 99 1 91 0
-100 -85 66 0
-17 45 9 10 0
51 -49 12 -26 0
-40 61 -76 0
6 43 78 125 0
-76 -66 96 0
-51 119 109 -31 0
28 95 -101 -66 -19 123 0
-47 -78 5 84 116 0
-65 -47 73 0
-41 70 54 20 0
-115 31 29 0
-68 -88 0
18 21 -90 30 67 99 0
29 82 107 59 -102 0
22 7 -39 -14 0
-68 -115 -86 0
-43 -64 86 0
-114 52 -32 -41 7 99 0
17 -73 -103 0
97 78 -104 0
-10 50 -98 0
53 -74 -100 -16 0
89 14 0
-44 78 0
-125 110 74 -25 -3 70 0
27 -10 0
-5 -83 0
-14 100 -7 101 33 0
-81 -77 0
110 -56 0
-98 111 -114 0
78 47 27 -12 -11 0
23 39 26 113 0
-37 -115 70 -22 -82 0
123 27 0
110 -117 0
31 110 -101 86 37 41 0
-2 -75 85 -53 0
126 0
